SDVRP instances/custom_instances/p03_27_split0.vrp
NAME:p03_27_split
BEST_KNOWN: 0
COMMENT: 0
DIMENSION: 457
CAPACITY: 200
EDGE_WEIGHT_FORMAT: FUNCTION
EDGE_WEIGHT_TYPE: EXACT_2D
NODE_COORD_SECTION
1 0.00000 0.00000
2 31 -12
3 31 -12
4 31 -12
5 31 -12
6 31 -12
7 31 -12
8 31 -12
9 -35 8
10 2 13
11 2 13
12 2 13
13 2 13
14 2 13
15 2 13
16 2 13
17 -38 -44
18 -38 -44
19 -38 -44
20 -38 -44
21 46 21
22 46 21
23 46 21
24 46 21
25 46 21
26 46 21
27 46 21
28 -7 -36
29 -7 -36
30 -36 46
31 -36 46
32 -36 46
33 -36 46
34 -36 46
35 -34 0
36 -34 0
37 -34 0
38 -34 0
39 31 -29
40 31 -29
41 31 -29
42 31 -29
43 4 49
44 4 49
45 4 49
46 38 4
47 38 4
48 -10 3
49 -10 3
50 -10 3
51 -10 3
52 -10 3
53 -10 3
54 -10 3
55 43 -39
56 43 -39
57 43 -39
58 43 -39
59 43 -39
60 43 -39
61 -41 46
62 -41 46
63 -41 46
64 -41 46
65 -41 46
66 -41 46
67 13 -43
68 13 -43
69 13 -43
70 13 -43
71 13 -43
72 -23 -48
73 -23 -48
74 -23 -48
75 -23 -48
76 37 40
77 37 40
78 37 40
79 37 40
80 -17 -48
81 -17 -48
82 -17 -48
83 -17 -48
84 -17 -48
85 -17 -48
86 -21 -13
87 -21 -13
88 -21 -13
89 -21 -13
90 -21 -13
91 -21 -13
92 -21 26
93 -21 26
94 -50 7
95 -50 7
96 -50 7
97 -50 7
98 36 -20
99 36 -20
100 36 -20
101 36 -20
102 36 -20
103 36 -20
104 36 -20
105 3 10
106 3 10
107 3 10
108 3 10
109 3 10
110 3 10
111 -40 -33
112 -40 -33
113 -40 -33
114 -40 -33
115 -40 -33
116 -18 -30
117 -18 -30
118 -18 -30
119 -18 -30
120 -18 -30
121 -18 -30
122 1 7
123 1 7
124 1 7
125 9 41
126 9 41
127 9 41
128 9 41
129 9 41
130 9 41
131 9 41
132 45 43
133 -1 45
134 -1 45
135 -1 45
136 -1 45
137 39 47
138 39 47
139 -22 -7
140 -22 -7
141 -22 -7
142 -35 22
143 -35 22
144 -35 22
145 -35 22
146 -35 22
147 -35 22
148 7 -5
149 7 -5
150 7 -5
151 7 -5
152 7 -5
153 45 16
154 45 16
155 45 16
156 -43 -16
157 -43 -16
158 -43 -16
159 -43 -16
160 -43 -16
161 11 -24
162 11 -24
163 11 -24
164 11 -24
165 11 -24
166 30 28
167 30 28
168 30 28
169 30 28
170 2 -48
171 2 -48
172 2 -48
173 2 -48
174 2 -48
175 46 45
176 46 45
177 46 45
178 46 45
179 46 45
180 46 45
181 -22 20
182 -22 20
183 -22 20
184 45 12
185 45 12
186 45 12
187 -49 24
188 -49 24
189 -49 24
190 -49 24
191 31 27
192 31 27
193 31 27
194 31 27
195 31 27
196 31 27
197 31 27
198 43 -43
199 43 -43
200 43 -43
201 -17 -20
202 7 -48
203 7 -48
204 7 -48
205 -46 49
206 -46 49
207 0 49
208 0 49
209 0 49
210 0 49
211 0 49
212 0 49
213 0 49
214 3 29
215 3 29
216 3 29
217 3 29
218 -28 -21
219 -28 -21
220 -28 -21
221 -30 13
222 -30 13
223 -30 13
224 -45 -49
225 -45 -49
226 -45 -49
227 -45 -49
228 -45 -49
229 -45 -49
230 -45 -49
231 -12 39
232 -12 39
233 -12 39
234 -12 39
235 -12 39
236 -12 39
237 -12 -14
238 -12 -14
239 -12 -14
240 -12 -14
241 -12 -14
242 6 2
243 6 2
244 6 2
245 6 2
246 6 2
247 37 2
248 37 2
249 37 2
250 37 2
251 37 2
252 37 2
253 -2 47
254 -2 47
255 -2 47
256 6 -33
257 6 -33
258 6 -33
259 6 -33
260 25 38
261 25 38
262 25 38
263 25 38
264 -14 43
265 -14 43
266 -14 43
267 -14 43
268 -14 43
269 -14 43
270 -14 43
271 -37 -32
272 -37 -32
273 -37 -32
274 -37 -32
275 -37 -32
276 -37 -32
277 20 35
278 20 35
279 20 35
280 42 37
281 42 37
282 42 37
283 -27 -2
284 -27 -2
285 -27 -2
286 -27 -2
287 -27 -2
288 32 49
289 32 49
290 32 49
291 32 49
292 32 49
293 3 33
294 3 33
295 3 33
296 3 33
297 -14 44
298 -14 44
299 -14 44
300 -14 44
301 -14 44
302 36 -39
303 36 -39
304 36 -39
305 36 -39
306 -34 -1
307 -34 -1
308 -34 -1
309 -34 -1
310 37 19
311 37 19
312 37 19
313 37 19
314 -4 -6
315 -4 -6
316 -4 -6
317 -4 -6
318 45 3
319 45 3
320 45 3
321 45 3
322 4 -7
323 4 -7
324 4 -7
325 4 -7
326 4 -7
327 -33 6
328 -33 6
329 -33 6
330 -39 38
331 -39 38
332 -39 38
333 -39 38
334 -39 38
335 -39 38
336 -39 38
337 24 -3
338 24 -3
339 24 -3
340 27 -44
341 27 -44
342 27 -44
343 27 -44
344 27 -44
345 27 -44
346 27 -44
347 -45 48
348 -45 48
349 -45 48
350 -45 48
351 -45 48
352 29 -2
353 29 -2
354 29 -2
355 29 -2
356 29 -2
357 29 -2
358 -3 30
359 -3 30
360 -3 30
361 -3 30
362 -38 38
363 -38 38
364 -38 38
365 -4 47
366 -4 47
367 -4 47
368 -4 47
369 -2 9
370 -2 9
371 -2 9
372 -2 9
373 13 19
374 13 19
375 13 19
376 13 19
377 13 19
378 18 -42
379 18 -42
380 18 -42
381 -1 -9
382 -1 -9
383 -1 -9
384 -1 -9
385 -1 -9
386 -1 -9
387 -1 -9
388 -1 -9
389 30 12
390 30 12
391 30 12
392 25 -41
393 25 -41
394 25 -41
395 -48 -42
396 -48 -42
397 -48 -42
398 -48 -42
399 -48 -42
400 -48 -42
401 33 -17
402 33 -17
403 33 -17
404 33 -17
405 33 -17
406 -2 36
407 -2 36
408 -2 36
409 -2 36
410 -2 36
411 -2 36
412 -2 36
413 -11 1
414 -11 1
415 -11 1
416 -11 1
417 -39 27
418 -39 27
419 -39 27
420 -39 27
421 -39 27
422 -39 27
423 28 -40
424 28 -40
425 28 -40
426 28 -40
427 28 -40
428 28 -40
429 -46 4
430 -46 4
431 -46 4
432 -46 4
433 1 -23
434 1 -23
435 1 -23
436 1 -23
437 1 -23
438 -21 -16
439 -21 -16
440 -21 -16
441 -21 -16
442 23 -15
443 23 -15
444 23 -15
445 23 -15
446 23 -15
447 23 -15
448 23 -15
449 23 -15
450 27 14
451 27 14
452 27 14
453 27 14
454 27 14
455 -40 -35
456 -40 -35
457 -40 -35
DEMAND_SECTION
1 0
2 40
3 10
4 2
5 2
6 2
7 2
8 1
9 40
10 40
11 40
12 10
13 2
14 2
15 2
16 2
17 40
18 20
19 10
20 2
21 40
22 40
23 10
24 2
25 2
26 2
27 2
28 40
29 40
30 40
31 10
32 2
33 2
34 2
35 40
36 20
37 2
38 2
39 40
40 40
41 2
42 1
43 40
44 40
45 1
46 40
47 2
48 40
49 20
50 10
51 2
52 2
53 2
54 2
55 20
56 2
57 2
58 2
59 2
60 1
61 40
62 40
63 2
64 2
65 2
66 1
67 40
68 2
69 2
70 2
71 1
72 40
73 20
74 10
75 1
76 40
77 20
78 2
79 2
80 40
81 20
82 2
83 2
84 2
85 1
86 40
87 40
88 10
89 2
90 2
91 2
92 40
93 20
94 40
95 10
96 2
97 1
98 40
99 20
100 2
101 2
102 2
103 2
104 1
105 20
106 10
107 2
108 2
109 2
110 1
111 20
112 2
113 2
114 2
115 1
116 20
117 10
118 2
119 2
120 2
121 2
122 40
123 20
124 1
125 40
126 20
127 10
128 2
129 2
130 2
131 2
132 40
133 40
134 2
135 2
136 2
137 40
138 10
139 40
140 10
141 1
142 40
143 40
144 2
145 2
146 2
147 2
148 40
149 20
150 2
151 2
152 1
153 40
154 10
155 2
156 40
157 10
158 2
159 2
160 2
161 40
162 20
163 10
164 2
165 2
166 40
167 40
168 10
169 2
170 20
171 10
172 2
173 2
174 1
175 40
176 20
177 2
178 2
179 2
180 1
181 20
182 10
183 1
184 20
185 10
186 2
187 40
188 20
189 10
190 1
191 20
192 10
193 2
194 2
195 2
196 2
197 1
198 40
199 40
200 10
201 40
202 40
203 20
204 10
205 40
206 40
207 40
208 40
209 10
210 2
211 2
212 2
213 2
214 40
215 10
216 2
217 2
218 40
219 40
220 2
221 40
222 40
223 20
224 40
225 20
226 10
227 2
228 2
229 2
230 1
231 40
232 20
233 2
234 2
235 2
236 2
237 40
238 20
239 10
240 2
241 2
242 40
243 40
244 10
245 2
246 1
247 40
248 2
249 2
250 2
251 2
252 1
253 40
254 20
255 2
256 40
257 2
258 2
259 2
260 20
261 2
262 2
263 1
264 20
265 10
266 2
267 2
268 2
269 2
270 1
271 40
272 20
273 2
274 2
275 2
276 1
277 40
278 40
279 2
280 40
281 40
282 2
283 20
284 10
285 2
286 2
287 2
288 40
289 2
290 2
291 2
292 2
293 40
294 20
295 10
296 2
297 20
298 2
299 2
300 2
301 2
302 40
303 10
304 2
305 1
306 20
307 2
308 2
309 2
310 40
311 10
312 2
313 2
314 20
315 10
316 2
317 2
318 40
319 20
320 10
321 2
322 40
323 2
324 2
325 2
326 1
327 40
328 20
329 10
330 40
331 20
332 2
333 2
334 2
335 2
336 1
337 20
338 10
339 1
340 40
341 40
342 10
343 2
344 2
345 2
346 2
347 40
348 2
349 2
350 2
351 1
352 40
353 20
354 2
355 2
356 2
357 1
358 40
359 40
360 10
361 1
362 40
363 2
364 1
365 40
366 10
367 2
368 2
369 20
370 2
371 2
372 2
373 40
374 40
375 10
376 2
377 1
378 20
379 10
380 1
381 40
382 40
383 10
384 2
385 2
386 2
387 2
388 1
389 40
390 10
391 2
392 40
393 10
394 2
395 20
396 10
397 2
398 2
399 2
400 1
401 40
402 20
403 2
404 2
405 2
406 40
407 10
408 2
409 2
410 2
411 2
412 1
413 40
414 20
415 2
416 2
417 40
418 10
419 2
420 2
421 2
422 2
423 40
424 40
425 2
426 2
427 2
428 1
429 40
430 2
431 2
432 2
433 40
434 10
435 2
436 2
437 2
438 40
439 20
440 2
441 1
442 40
443 40
444 10
445 2
446 2
447 2
448 2
449 1
450 20
451 2
452 2
453 2
454 1
455 40
456 20
457 2
DEPOT_SECTION
1
-1
EOF