SDVRP instances/custom_instances/p03_27_split0.sol
456 -2 1 3 7 6 4 5 401 400 402 404 403 103 99 97 102 98 101 100 444 446 445 -12 11 15 216 214 215 213 292 359 357 358 360 -14 13 294 295 293 130 126 125 124 128 129 127 277 276 278 -18 19 17 16 228 227 226 225 223 229 224 399 396 397 395 398 394 456 111 112 274 273 272 -28 27 255 257 256 258 433 436 432 434 435 -33 30 29 32 31 62 63 205 204 349 347 348 350 346 -39 41 38 40 427 426 424 425 422 423 162 161 -44 42 43 210 211 206 209 208 207 212 134 135 411 406 407 409 410 -46 45 320 319 318 317 246 250 249 251 248 247 354 353 356 338 336 337 -48 49 51 53 50 52 47 412 415 413 414 -65 60 61 64 333 332 330 334 329 331 335 363 362 361 -76 77 78 75 137 136 287 289 291 290 288 259 262 261 260 374 -80 79 82 83 84 81 73 74 71 72 116 118 120 117 115 119 -86 89 90 85 88 87 437 438 440 439 313 315 314 316 -92 91 264 265 266 263 268 267 269 300 299 297 296 298 233 230 234 231 235 232 -106 104 105 108 109 107 10 9 376 372 373 375 -132 133 252 253 254 366 367 365 364 405 408 -140 138 139 308 305 306 307 36 34 35 37 283 282 286 284 285 -146 141 142 145 144 143 418 420 417 421 416 419 182 181 180 -148 149 150 57 55 58 54 56 59 199 197 198 304 301 302 303 -151 147 321 325 381 380 385 383 387 386 384 382 -155 158 157 156 159 110 113 114 454 455 275 270 271 -163 160 164 69 66 68 70 67 201 202 203 173 172 170 169 171 -167 166 165 168 193 190 194 192 196 195 311 309 312 310 450 449 452 -178 176 174 179 175 177 131 280 279 281 191 -186 188 189 187 93 94 95 96 431 430 429 428 327 -217 219 218 200 240 237 239 238 236 -221 222 220 8 328 326 -245 241 243 244 242 122 123 121 368 370 371 369 -322 323 324 392 391 393 342 340 341 345 344 343 339 377 378 379 -388 351 355 352 448 447 443 441 442 -390 389 184 183 185 152 153 154 26 23 22 20 21 24 25 453 451 0 





OBJ=
2958.664
BEST_KNOWN=
0.000